NAME (null)_copy
ROWS
 N  OBJ
 E  VILLKOR1
 L  VILLKOR9
COLUMNS
    10253000  OBJ       160.7
    10253000  VILLKOR1  1
    MPS_RgVILLKOR2  OBJ       235.5
    MPS_RgVILLKOR2  VILLKOR9  -1
    MPS_RgVILLKOR2  VILLKOR1  1
    MPS_RgVILLKOR3  OBJ       174.2
    MPS_RgVILLKOR3  VILLKOR1  1
    MPS_RgVILLKOR4  OBJ       442.8
    MPS_RgVILLKOR4  VILLKOR9  -1
    MPS_RgVILLKOR4  VILLKOR1  1
    MPS_RgVILLKOR5  OBJ       368.6
    MPS_RgVILLKOR5  VILLKOR1  1
    MPS_RgVILLKOR6  OBJ       303.6
    MPS_RgVILLKOR6  VILLKOR1  1
    MPS_RgVILLKOR7  OBJ       131.9
    MPS_RgVILLKOR7  VILLKOR9  -1
    MPS_RgVILLKOR7  VILLKOR1  1
    MPS_RgVILLKOR8  OBJ       111.5
    MPS_RgVILLKOR8  VILLKOR1  1
RHS
    RHS1      OBJ       -10596.95
    RHS1      VILLKOR1  39.5
    RHS1      VILLKOR9  -12.5
BOUNDS
 LO BND1      10253000  0.5
 UP BND1      10253000  2
 UP BND1      MPS_RgVILLKOR2  7
 UP BND1      MPS_RgVILLKOR3  7
 UP BND1      MPS_RgVILLKOR4  3.5
 UP BND1      MPS_RgVILLKOR5  10
 UP BND1      MPS_RgVILLKOR6  2.5
 LO BND1      MPS_RgVILLKOR7  1.997
 UP BND1      MPS_RgVILLKOR7  30
 UP BND1      MPS_RgVILLKOR8  7.5
ENDATA
